led_fsm_unrolled.smt2
; SMT-LIBv2 description generated by Yosys 0.53 (git sha1 53c22ab7c0ced80861c7536c5dae682c30fb5834, clang++ 17.0.0 -fPIC -O3)
; yosys-smt2-stdt
; yosys-smt2-module led_fsm
(declare-datatype |led_fsm_s| ((|led_fsm_mk|
  (|led_fsm_is| Bool)
  (|LEDs| (_ BitVec 5)) ; \LEDs
  (|clock| Bool) ; \clock
  (|led_state| (_ BitVec 3)) ; \led_state
  (|on| (_ BitVec 1)) ; \on
  (|reset| Bool) ; \reset
  (|up| (_ BitVec 1)) ; \up
)))
; yosys-smt2-witness {"offset": 0, "path": ["\\LEDs"], "smtname": 0, "smtoffset": 0, "type": "reg", "width": 5}
; yosys-smt2-output LEDs 5
; yosys-smt2-register LEDs 5
; yosys-smt2-wire LEDs 5
(define-fun |led_fsm_n LEDs| ((state |led_fsm_s|)) (_ BitVec 5) (|LEDs| state))
; yosys-smt2-input clock 1
; yosys-smt2-wire clock 1
; yosys-smt2-clock clock posedge
; yosys-smt2-witness {"offset": 0, "path": ["\\clock"], "smtname": "clock", "smtoffset": 0, "type": "posedge", "width": 1}
; yosys-smt2-witness {"offset": 0, "path": ["\\clock"], "smtname": "clock", "smtoffset": 0, "type": "input", "width": 1}
(define-fun |led_fsm_n clock| ((state |led_fsm_s|)) Bool (|clock| state))
; yosys-smt2-witness {"offset": 0, "path": ["\\led_state"], "smtname": 2, "smtoffset": 0, "type": "reg", "width": 3}
; yosys-smt2-register led_state 3
; yosys-smt2-wire led_state 3
(define-fun |led_fsm_n led_state| ((state |led_fsm_s|)) (_ BitVec 3) (|led_state| state))
; yosys-smt2-witness {"offset": 0, "path": ["\\on"], "smtname": 3, "smtoffset": 0, "type": "reg", "width": 1}
; yosys-smt2-register on 1
; yosys-smt2-wire on 1
(define-fun |led_fsm_n on| ((state |led_fsm_s|)) Bool (= ((_ extract 0 0) (|on| state)) #b1))
; yosys-smt2-input reset 1
; yosys-smt2-wire reset 1
; yosys-smt2-witness {"offset": 0, "path": ["\\reset"], "smtname": "reset", "smtoffset": 0, "type": "input", "width": 1}
(define-fun |led_fsm_n reset| ((state |led_fsm_s|)) Bool (|reset| state))
; yosys-smt2-witness {"offset": 0, "path": ["\\up"], "smtname": 5, "smtoffset": 0, "type": "reg", "width": 1}
; yosys-smt2-register up 1
; yosys-smt2-wire up 1
(define-fun |led_fsm_n up| ((state |led_fsm_s|)) Bool (= ((_ extract 0 0) (|up| state)) #b1))
(define-fun |led_fsm#6| ((state |led_fsm_s|)) (_ BitVec 1) (ite (= ((_ extract 0 0) (|up| state)) #b1) #b1 #b0)) ; $procmux$70_Y
(define-fun |led_fsm#7| ((state |led_fsm_s|)) (_ BitVec 1) (ite (= ((_ extract 0 0) (|up| state)) #b1) #b1 #b0)) ; $procmux$78_Y
(define-fun |led_fsm#8| ((state |led_fsm_s|)) Bool (= (|led_state| state) #b101)) ; $procmux$73_CMP
(define-fun |led_fsm#9| ((state |led_fsm_s|)) Bool (= (|led_state| state) #b100)) ; $procmux$76_CMP
(define-fun |led_fsm#10| ((state |led_fsm_s|)) Bool (= (|led_state| state) #b011)) ; $procmux$80_CMP
(define-fun |led_fsm#11| ((state |led_fsm_s|)) (_ BitVec 1) (ite (|led_fsm#10| state) (|led_fsm#7| state) (ite (|led_fsm#9| state) #b0 (ite (|led_fsm#8| state) (|led_fsm#6| state) #b1)))) ; $procmux$72_Y
(define-fun |led_fsm#12| ((state |led_fsm_s|)) (_ BitVec 1) (ite (= ((_ extract 0 0) (|on| state)) #b1) (|up| state) (|led_fsm#11| state))) ; $procmux$84_Y
(define-fun |led_fsm#13| ((state |led_fsm_s|)) (_ BitVec 1) (ite (|reset| state) #b0 (|led_fsm#12| state))) ; $0\up[0:0]
(define-fun |led_fsm#14| ((state |led_fsm_s|)) (_ BitVec 1) (ite (= ((_ extract 0 0) (|on| state)) #b1) #b0 #b1)) ; $procmux$7_Y
(define-fun |led_fsm#15| ((state |led_fsm_s|)) (_ BitVec 1) (ite (|reset| state) #b1 (|led_fsm#14| state))) ; $0\on[0:0]
(define-fun |led_fsm#16| ((state |led_fsm_s|)) (_ BitVec 3) (ite (= ((_ extract 0 0) (|up| state)) #b1) #b010 #b000)) ; $procmux$40_Y
(define-fun |led_fsm#17| ((state |led_fsm_s|)) (_ BitVec 3) (ite (= ((_ extract 0 0) (|up| state)) #b1) #b000 #b100)) ; $procmux$44_Y
(define-fun |led_fsm#18| ((state |led_fsm_s|)) (_ BitVec 3) (ite (= ((_ extract 0 0) (|up| state)) #b1) #b101 #b011)) ; $procmux$49_Y
(define-fun |led_fsm#19| ((state |led_fsm_s|)) (_ BitVec 3) (ite (= ((_ extract 0 0) (|up| state)) #b1) #b100 #b010)) ; $procmux$53_Y
(define-fun |led_fsm#20| ((state |led_fsm_s|)) (_ BitVec 3) (ite (= ((_ extract 0 0) (|up| state)) #b1) #b011 #b001)) ; $procmux$57_Y
(define-fun |led_fsm#21| ((state |led_fsm_s|)) Bool (= (|led_state| state) #b101)) ; $procmux$47_CMP
(define-fun |led_fsm#22| ((state |led_fsm_s|)) Bool (= (|led_state| state) #b100)) ; $procmux$51_CMP
(define-fun |led_fsm#23| ((state |led_fsm_s|)) Bool (= (|led_state| state) #b011)) ; $procmux$55_CMP
(define-fun |led_fsm#24| ((state |led_fsm_s|)) Bool (= (|led_state| state) #b010)) ; $procmux$59_CMP
(define-fun |led_fsm#25| ((state |led_fsm_s|)) (_ BitVec 3) (ite (|led_fsm#24| state) (|led_fsm#20| state) (ite (|led_fsm#23| state) (|led_fsm#19| state) (ite (|led_fsm#22| state) (|led_fsm#18| state) (ite (|led_fsm#21| state) (|led_fsm#17| state) (|led_fsm#16| state)))))) ; $procmux$46_Y
(define-fun |led_fsm#26| ((state |led_fsm_s|)) (_ BitVec 3) (ite (= ((_ extract 0 0) (|on| state)) #b1) (|led_state| state) (|led_fsm#25| state))) ; $procmux$61_Y
(define-fun |led_fsm#27| ((state |led_fsm_s|)) (_ BitVec 3) (ite (|reset| state) #b010 (|led_fsm#26| state))) ; $0\led_state[2:0]
(define-fun |led_fsm#28| ((state |led_fsm_s|)) (_ BitVec 5) (ite (= ((_ extract 0 0) (|up| state)) #b1) #b00011 #b00000)) ; $procmux$13_Y
(define-fun |led_fsm#29| ((state |led_fsm_s|)) (_ BitVec 5) (ite (= ((_ extract 0 0) (|up| state)) #b1) #b00000 #b01111)) ; $procmux$17_Y
(define-fun |led_fsm#30| ((state |led_fsm_s|)) (_ BitVec 5) (ite (= ((_ extract 0 0) (|up| state)) #b1) #b11111 #b00111)) ; $procmux$22_Y
(define-fun |led_fsm#31| ((state |led_fsm_s|)) (_ BitVec 5) (ite (= ((_ extract 0 0) (|up| state)) #b1) #b01111 #b00011)) ; $procmux$26_Y
(define-fun |led_fsm#32| ((state |led_fsm_s|)) (_ BitVec 5) (ite (= ((_ extract 0 0) (|up| state)) #b1) #b00111 #b00001)) ; $procmux$30_Y
(define-fun |led_fsm#33| ((state |led_fsm_s|)) Bool (= (|led_state| state) #b101)) ; $procmux$20_CMP
(define-fun |led_fsm#34| ((state |led_fsm_s|)) Bool (= (|led_state| state) #b100)) ; $procmux$24_CMP
(define-fun |led_fsm#35| ((state |led_fsm_s|)) Bool (= (|led_state| state) #b011)) ; $procmux$28_CMP
(define-fun |led_fsm#36| ((state |led_fsm_s|)) Bool (= (|led_state| state) #b010)) ; $procmux$32_CMP
(define-fun |led_fsm#37| ((state |led_fsm_s|)) (_ BitVec 5) (ite (|led_fsm#36| state) (|led_fsm#32| state) (ite (|led_fsm#35| state) (|led_fsm#31| state) (ite (|led_fsm#34| state) (|led_fsm#30| state) (ite (|led_fsm#33| state) (|led_fsm#29| state) (|led_fsm#28| state)))))) ; $procmux$19_Y
(define-fun |led_fsm#38| ((state |led_fsm_s|)) (_ BitVec 5) (ite (= ((_ extract 0 0) (|on| state)) #b1) #b00000 (|led_fsm#37| state))) ; $procmux$34_Y
(define-fun |led_fsm#39| ((state |led_fsm_s|)) (_ BitVec 5) (ite (|reset| state) #b10101 (|led_fsm#38| state))) ; $0\LEDs[4:0]
(define-fun |led_fsm_a| ((state |led_fsm_s|)) Bool true)
(define-fun |led_fsm_u| ((state |led_fsm_s|)) Bool true)
(define-fun |led_fsm_i| ((state |led_fsm_s|)) Bool (and
  (= (|LEDs| state) #b10101) ; LEDs
  (= (|led_state| state) #b010) ; led_state
  (= (= ((_ extract 0 0) (|on| state)) #b1) true) ; on
  (= (= ((_ extract 0 0) (|up| state)) #b1) false) ; up
))
(define-fun |led_fsm_h| ((state |led_fsm_s|)) Bool true)
(define-fun |led_fsm_t| ((state |led_fsm_s|) (next_state |led_fsm_s|)) Bool (and
  (= (|led_fsm#13| state) (|up| next_state)) ; $procdff$90 \up
  (= (|led_fsm#15| state) (|on| next_state)) ; $procdff$91 \on
  (= (|led_fsm#27| state) (|led_state| next_state)) ; $procdff$92 \led_state
  (= (|led_fsm#39| state) (|LEDs| next_state)) ; $procdff$89 \LEDs
)) ; end of module led_fsm
; yosys-smt2-topmod led_fsm
; end of yosys output

; Probes for variable LEDs
(declare-const |probe_LEDs_B_0| (_ BitVec 5))
(declare-const |probe_LEDs_B_1| (_ BitVec 5))

; Unrolled states
(declare-const |s_B_0| |led_fsm_s|)
(declare-const |s_B_1| |led_fsm_s|)

; Initial and Next-state constraints
(assert (and (|led_fsm_i| |s_B_0|) (|led_fsm_t| s_B_0 s_B_1) (= |probe_LEDs_B_0| (|led_fsm_n LEDs| s_B_0)) (= |probe_LEDs_B_1| (|led_fsm_n LEDs| s_B_1)) ))
; End of unrolling constraints
